Pd 
 1.0000000000000000
     2.8056582863919832    0.0000000000000000    0.0000000000000000
     1.4028291431959918    2.4297713503537732    0.0000000000000000
     1.4028291431959914    0.8099237834512576    2.2908103980905965
   1
Cartesian
  0.0000000000000000  0.0000000000000000  0.0000000000000000
