Pd 
 1.0000000000000000
     2.8606711939682965    0.0000000000000000    0.0000000000000000
     1.4303355969841482    2.4774139258509060    0.0000000000000000
     1.4303355969841480    0.8258046419503020    2.3357282490335498
   1
Cartesian
  0.0000000000000000  0.0000000000000000  0.0000000000000000
