INCAR created by Atomic Simulation Environment
 PREC = Normal
 GGA = PS
 IBRION = -1
