 C  H 
 1.0000000000000000
     6.0000000000000000    0.0000000000000000    0.0000000000000000
     0.0000000000000000    6.0000000000000000    0.0000000000000000
     0.0000000000000000    0.0000000000000000    6.0000000000000000
   1   4
Cartesian
  3.0000000000000000  3.0000000000000000  3.0000000000000000
  3.6291180000000001  3.6291180000000001  3.6291180000000001
  2.3708819999999999  2.3708819999999999  3.6291180000000001
  3.6291180000000001  2.3708819999999999  2.3708819999999999
  2.3708819999999999  3.6291180000000001  2.3708819999999999
