Pd                                      
   1.00000000000000     
     2.5305937485104160    0.0000000000000000    0.0000000000000000
     1.2652968742552082    2.1915584728681092    0.0000000000000000
     1.2652968742552080    0.7305194909560363    2.0662211433758326
   Pd
     1
Direct
  0.0000000000000000  0.0000000000000000  0.0000000000000000
 
  0.00000000E+00  0.00000000E+00  0.00000000E+00
