Ag                                      
   1.00000000000000     
     3.1234320738572179    0.0000000000000000    0.0000000000000000
     1.5617160369286092    2.7049715229554634    0.0000000000000000
     1.5617160369286087    0.9016571743184878    2.5502716090644153
   Ag
     1
Direct
  0.0000000000000000  0.0000000000000000  0.0000000000000000
 
  0.00000000E+00  0.00000000E+00  0.00000000E+00
