Ag 
 1.0000000000000000
     3.1234320738572179    0.0000000000000000    0.0000000000000000
     1.5617160369286092    2.7049715229554634    0.0000000000000000
     1.5617160369286087    0.9016571743184878    2.5502716090644153
   1
Cartesian
  0.0000000000000000  0.0000000000000000  0.0000000000000000
