Pd                                      
   1.00000000000000     
     3.0257099166972368    0.0000000000000000    0.0000000000000000
     1.5128549583486186    2.6203416523423044    0.0000000000000000
     1.5128549583486182    0.8734472174474349    2.4704818018624088
   Pd
     1
Direct
  0.0000000000000000  0.0000000000000000  0.0000000000000000
 
  0.00000000E+00  0.00000000E+00  0.00000000E+00
