Pd                                      
   1.00000000000000     
     2.9706970091209230    0.0000000000000000    0.0000000000000000
     1.4853485045604617    2.5726990768451716    0.0000000000000000
     1.4853485045604615    0.8575663589483906    2.4255639509194555
   Pd
     1
Direct
  0.0000000000000000  0.0000000000000000  0.0000000000000000
 
  0.00000000E+00  0.00000000E+00  0.00000000E+00
