Ag                                      
   1.00000000000000     
     3.0077494044550983    0.0000000000000000    0.0000000000000000
     1.5038747022275492    2.6047873924756311    0.0000000000000000
     1.5038747022275489    0.8682624641585439    2.4558171050249920
   Ag
     1
Direct
  0.0000000000000000  0.0000000000000000  0.0000000000000000
 
  0.00000000E+00  0.00000000E+00  0.00000000E+00
