Ag                                      
   1.00000000000000     
     3.0655907391561579    0.0000000000000000    0.0000000000000000
     1.5327953695780792    2.6548794577155475    0.0000000000000000
     1.5327953695780789    0.8849598192385159    2.5030443570447032
   Ag
     1
Direct
  0.0000000000000000  0.0000000000000000  0.0000000000000000
 
  0.00000000E+00  0.00000000E+00  0.00000000E+00
