Ag 
 1.0000000000000000
     3.0655907391561579    0.0000000000000000    0.0000000000000000
     1.5327953695780792    2.6548794577155475    0.0000000000000000
     1.5327953695780789    0.8849598192385159    2.5030443570447032
   1
Cartesian
  0.0000000000000000  0.0000000000000000  0.0000000000000000
