Pd 
 1.0000000000000000
     2.6956324712393567    0.0000000000000000    0.0000000000000000
     1.3478162356196783    2.3344861993595076    0.0000000000000000
     1.3478162356196781    0.7781620664531691    2.2009746962046917
   1
Cartesian
  0.0000000000000000  0.0000000000000000  0.0000000000000000
