Ag                                      
   1.00000000000000     
     2.9499080697540387    0.0000000000000000    0.0000000000000000
     1.4749540348770196    2.5546953272357156    0.0000000000000000
     1.4749540348770194    0.8515651090785719    2.4085898530052807
   Ag
     1
Direct
  0.0000000000000000  0.0000000000000000  0.0000000000000000
 
  0.00000000E+00  0.00000000E+00  0.00000000E+00
