Ag                                      
   1.00000000000000     
     2.7763840656508600    0.0000000000000000    0.0000000000000000
     1.3881920328254302    2.4044191315159673    0.0000000000000000
     1.3881920328254298    0.8014730438386558    2.2669080969461461
   Ag
     1
Direct
  0.0000000000000000  0.0000000000000000  0.0000000000000000
 
  0.00000000E+00  0.00000000E+00  0.00000000E+00
