Ag                                      
   1.00000000000000     
     2.8342254003519196    0.0000000000000000    0.0000000000000000
     1.4171127001759598    2.4545111967558833    0.0000000000000000
     1.4171127001759596    0.8181703989186278    2.3141353489658574
   Ag
     1
Direct
  0.0000000000000000  0.0000000000000000  0.0000000000000000
 
  0.00000000E+00  0.00000000E+00  0.00000000E+00
