Ag                                      
   1.00000000000000     
     3.1812734085582779    0.0000000000000000    0.0000000000000000
     1.5906367042791389    2.7550635881953798    0.0000000000000000
     1.5906367042791387    0.9183545293984600    2.5974988610841265
   Ag
     1
Direct
  0.0000000000000000  0.0000000000000000  0.0000000000000000
 
  0.00000000E+00  0.00000000E+00  0.00000000E+00
