Ag 
 1.0000000000000000
     3.1812734085582779    0.0000000000000000    0.0000000000000000
     1.5906367042791389    2.7550635881953798    0.0000000000000000
     1.5906367042791387    0.9183545293984600    2.5974988610841265
   1
Cartesian
  0.0000000000000000  0.0000000000000000  0.0000000000000000
