Pd 
 1.0000000000000000
     2.9156841015446098    0.0000000000000000    0.0000000000000000
     1.4578420507723051    2.5250565013480388    0.0000000000000000
     1.4578420507723049    0.8416855004493464    2.3806460999765031
   1
Cartesian
  0.0000000000000000  0.0000000000000000  0.0000000000000000
