Pd                                      
   1.00000000000000     
     2.4755808409341027    0.0000000000000000    0.0000000000000000
     1.2377904204670516    2.1439158973709764    0.0000000000000000
     1.2377904204670513    0.7146386324569922    2.0213032924328802
   Pd
     1
Direct
  0.0000000000000000  0.0000000000000000  0.0000000000000000
 
  0.00000000E+00  0.00000000E+00  0.00000000E+00
