Pd                                      
   1.00000000000000     
     2.6406195636630425    0.0000000000000000    0.0000000000000000
     1.3203097818315217    2.2868436238623744    0.0000000000000000
     1.3203097818315213    0.7622812079541249    2.1560568452617384
   Pd
     1
Direct
  0.0000000000000000  0.0000000000000000  0.0000000000000000
 
  0.00000000E+00  0.00000000E+00  0.00000000E+00
