INCAR created by Atomic Simulation Environment
 ENCUT = 350.000000
 NSW = 30
 IBRION = 2
 ISIF = 2
