Ag 
 1.0000000000000000
     2.7185427309498005    0.0000000000000000    0.0000000000000000
     1.3592713654749005    2.3543270662760514    0.0000000000000000
     1.3592713654749000    0.7847756887586840    2.2196808449264349
   1
Cartesian
  0.0000000000000000  0.0000000000000000  0.0000000000000000
