Ag 
 1.0000000000000000
     2.6028600615476813    0.0000000000000000    0.0000000000000000
     1.3014300307738409    2.2541429357962190    0.0000000000000000
     1.3014300307738407    0.7513809785987398    2.1252263408870125
   1
Cartesian
  0.0000000000000000  0.0000000000000000  0.0000000000000000
