Pd                                      
   1.00000000000000     
     2.5856066560867292    0.0000000000000000    0.0000000000000000
     1.2928033280433651    2.2392010483652420    0.0000000000000000
     1.2928033280433646    0.7464003494550807    2.1111389943187850
   Pd
     1
Direct
  0.0000000000000000  0.0000000000000000  0.0000000000000000
 
  0.00000000E+00  0.00000000E+00  0.00000000E+00
