Ag                                      
   1.00000000000000     
     2.6607013962487409    0.0000000000000000    0.0000000000000000
     1.3303506981243707    2.3042350010361354    0.0000000000000000
     1.3303506981243705    0.7680783336787117    2.1724535929067237
   Ag
     1
Direct
  0.0000000000000000  0.0000000000000000  0.0000000000000000
 
  0.00000000E+00  0.00000000E+00  0.00000000E+00
