Ag 
 1.0000000000000000
     2.6607013962487409    0.0000000000000000    0.0000000000000000
     1.3303506981243707    2.3042350010361354    0.0000000000000000
     1.3303506981243705    0.7680783336787117    2.1724535929067237
   1
Cartesian
  0.0000000000000000  0.0000000000000000  0.0000000000000000
